Score: 26
1 0 1 2 7 8 9 10 15 16 17 18 23 24 25 26 31 32 33 34 39 40 41 42 47 48 49 50 55 56 57 58 63 64 65 66 71 72 73 74 79 80 81 82 87 88 89 90 95 96 97 98 103 104 105 106 111 112 113 114 119 120 121 122 255 256 257 258 263 264 265 266 271 272 273 274 279 280 281 282 287 288 289 290 295 296 297 298 303 304 305 306 311 312 313 314 319 320 321 322 327 328 329 330 335 336 337 338 343 344 345 346 351 352 353 354 359 360 361 362 367 368 369 370 375 376 377 378
1 1 3 5 7 9 11 13 15 17 19 21 23 25 27 29 31 33 35 37 39 41 43 45 47 49 51 53 55 57 59 61 63 65 67 69 71 73 75 77 79 81 83 85 87 89 91 93 95 97 99 101 103 105 107 109 111 113 115 117 119 121 123 125 255 257 259 261 263 265 267 269 271 273 275 277 279 281 283 285 287 289 291 293 295 297 299 301 303 305 307 309 311 313 315 317 319 321 323 325 327 329 331 333 335 337 339 341 343 345 347 349 351 353 355 357 359 361 363 365 367 369 371 373 375 377 379 381
1 0 7 8 15 16 23 24 31 32 39 40 47 48 55 56 63 64 71 72 79 80 87 88 95 96 103 104 111 112 119 120 127 128 135 136 143 144 151 152 159 160 167 168 175 176 183 184 191 192 199 200 207 208 215 216 223 224 231 232 239 240 247 248 255 256 263 264 271 272 279 280 287 288 295 296 303 304 311 312 319 320 327 328 335 336 343 344 351 352 359 360 367 368 375 376 383 384 391 392 399 400 407 408 415 416 423 424 431 432 439 440 447 448 455 456 463 464 471 472 479 480 487 488 495 496 503 504
1 3 7 11 15 19 23 27 31 35 39 43 47 51 55 59 63 67 71 75 79 83 87 91 95 99 103 107 111 115 119 123 127 131 135 139 143 147 151 155 159 163 167 171 175 179 183 187 191 195 199 203 207 211 215 219 223 227 231 235 239 243 247 251 255 259 263 267 271 275 279 283 287 291 295 299 303 307 311 315 319 323 327 331 335 339 343 347 351 355 359 363 367 371 375 379 383 387 391 395 399 403 407 411 415 419 423 427 431 435 439 443 447 451 455 459 463 467 471 475 479 483 487 491 495 499 503 507
1 0 1 2 3 4 5 6 7 8 9 10 11 12 13 14 31 32 33 34 35 36 37 38 39 40 41 42 43 44 45 46 127 128 129 130 131 132 133 134 135 136 137 138 139 140 141 142 159 160 161 162 163 164 165 166 167 168 169 170 171 172 173 174 511 512 513 514 515 516 517 518 519 520 521 522 523 524 525 526 543 544 545 546 547 548 549 550 551 552 553 554 555 556 557 558 639 640 641 642 643 644 645 646 647 648 649 650 651 652 653 654 671 672 673 674 675 676 677 678 679 680 681 682 683 684 685 686
1 0 1 2 3 4 5 6 15 16 17 18 19 20 21 22 31 32 33 34 35 36 37 38 47 48 49 50 51 52 53 54 127 128 129 130 131 132 133 134 143 144 145 146 147 148 149 150 159 160 161 162 163 164 165 166 175 176 177 178 179 180 181 182 511 512 513 514 515 516 517 518 527 528 529 530 531 532 533 534 543 544 545 546 547 548 549 550 559 560 561 562 563 564 565 566 639 640 641 642 643 644 645 646 655 656 657 658 659 660 661 662 671 672 673 674 675 676 677 678 687 688 689 690 691 692 693 694
1 0 1 2 3 4 5 6 31 32 33 34 35 36 37 38 63 64 65 66 67 68 69 70 95 96 97 98 99 100 101 102 127 128 129 130 131 132 133 134 159 160 161 162 163 164 165 166 191 192 193 194 195 196 197 198 223 224 225 226 227 228 229 230 511 512 513 514 515 516 517 518 543 544 545 546 547 548 549 550 575 576 577 578 579 580 581 582 607 608 609 610 611 612 613 614 639 640 641 642 643 644 645 646 671 672 673 674 675 676 677 678 703 704 705 706 707 708 709 710 735 736 737 738 739 740 741 742
1 0 1 2 7 8 9 10 15 16 17 18 23 24 25 26 63 64 65 66 71 72 73 74 79 80 81 82 87 88 89 90 255 256 257 258 263 264 265 266 271 272 273 274 279 280 281 282 319 320 321 322 327 328 329 330 335 336 337 338 343 344 345 346 511 512 513 514 519 520 521 522 527 528 529 530 535 536 537 538 575 576 577 578 583 584 585 586 591 592 593 594 599 600 601 602 767 768 769 770 775 776 777 778 783 784 785 786 791 792 793 794 831 832 833 834 839 840 841 842 847 848 849 850 855 856 857 858
1 1 3 5 7 9 11 13 15 17 19 21 23 25 27 29 63 65 67 69 71 73 75 77 79 81 83 85 87 89 91 93 255 257 259 261 263 265 267 269 271 273 275 277 279 281 283 285 319 321 323 325 327 329 331 333 335 337 339 341 343 345 347 349 511 513 515 517 519 521 523 525 527 529 531 533 535 537 539 541 575 577 579 581 583 585 587 589 591 593 595 597 599 601 603 605 767 769 771 773 775 777 779 781 783 785 787 789 791 793 795 797 831 833 835 837 839 841 843 845 847 849 851 853 855 857 859 861
1 0 1 2 3 4 5 6 31 32 33 34 35 36 37 38 127 128 129 130 131 132 133 134 159 160 161 162 163 164 165 166 255 256 257 258 259 260 261 262 287 288 289 290 291 292 293 294 383 384 385 386 387 388 389 390 415 416 417 418 419 420 421 422 511 512 513 514 515 516 517 518 543 544 545 546 547 548 549 550 639 640 641 642 643 644 645 646 671 672 673 674 675 676 677 678 767 768 769 770 771 772 773 774 799 800 801 802 803 804 805 806 895 896 897 898 899 900 901 902 927 928 929 930 931 932 933 934
1 0 7 8 15 16 23 24 63 64 71 72 79 80 87 88 127 128 135 136 143 144 151 152 191 192 199 200 207 208 215 216 255 256 263 264 271 272 279 280 319 320 327 328 335 336 343 344 383 384 391 392 399 400 407 408 447 448 455 456 463 464 471 472 511 512 519 520 527 528 535 536 575 576 583 584 591 592 599 600 639 640 647 648 655 656 663 664 703 704 711 712 719 720 727 728 767 768 775 776 783 784 791 792 831 832 839 840 847 848 855 856 895 896 903 904 911 912 919 920 959 960 967 968 975 976 983 984
1 3 7 11 15 19 23 27 63 67 71 75 79 83 87 91 127 131 135 139 143 147 151 155 191 195 199 203 207 211 215 219 255 259 263 267 271 275 279 283 319 323 327 331 335 339 343 347 383 387 391 395 399 403 407 411 447 451 455 459 463 467 471 475 511 515 519 523 527 531 535 539 575 579 583 587 591 595 599 603 639 643 647 651 655 659 663 667 703 707 711 715 719 723 727 731 767 771 775 779 783 787 791 795 831 835 839 843 847 851 855 859 895 899 903 907 911 915 919 923 959 963 967 971 975 979 983 987
1 0 1 2 7 8 9 10 15 16 17 18 23 24 25 26 31 32 33 34 39 40 41 42 47 48 49 50 55 56 57 58 63 64 65 66 71 72 73 74 79 80 81 82 87 88 89 90 95 96 97 98 103 104 105 106 111 112 113 114 119 120 121 122 899 900 901 902 907 908 909 910 915 916 917 918 923 924 925 926 931 932 933 934 939 940 941 942 947 948 949 950 955 956 957 958 963 964 965 966 971 972 973 974 979 980 981 982 987 988 989 990 995 996 997 998 1003 1004 1005 1006 1011 1012 1013 1014 1019 1020 1021 1022
1 3 7 11 15 19 23 27 31 35 39 43 47 51 55 59 63 67 71 75 79 83 87 91 95 99 103 107 111 115 119 123 127 131 135 139 143 147 151 155 159 163 167 171 175 179 183 187 191 195 199 203 207 211 215 219 223 227 231 235 239 243 247 251 770 774 778 782 786 790 794 798 802 806 810 814 818 822 826 830 834 838 842 846 850 854 858 862 866 870 874 878 882 886 890 894 898 902 906 910 914 918 922 926 930 934 938 942 946 950 954 958 962 966 970 974 978 982 986 990 994 998 1002 1006 1010 1014 1018 1022
1 0 1 2 3 4 5 6 7 8 9 10 11 12 13 14 127 128 129 130 131 132 133 134 135 136 137 138 139 140 141 142 255 256 257 258 259 260 261 262 263 264 265 266 267 268 269 270 383 384 385 386 387 388 389 390 391 392 393 394 395 396 397 398 623 624 625 626 627 628 629 630 631 632 633 634 635 636 637 638 751 752 753 754 755 756 757 758 759 760 761 762 763 764 765 766 879 880 881 882 883 884 885 886 887 888 889 890 891 892 893 894 1007 1008 1009 1010 1011 1012 1013 1014 1015 1016 1017 1018 1019 1020 1021 1022
1 0 1 2 3 4 5 6 15 16 17 18 19 20 21 22 127 128 129 130 131 132 133 134 143 144 145 146 147 148 149 150 255 256 257 258 259 260 261 262 271 272 273 274 275 276 277 278 383 384 385 386 387 388 389 390 399 400 401 402 403 404 405 406 615 616 617 618 619 620 621 622 631 632 633 634 635 636 637 638 743 744 745 746 747 748 749 750 759 760 761 762 763 764 765 766 871 872 873 874 875 876 877 878 887 888 889 890 891 892 893 894 999 1000 1001 1002 1003 1004 1005 1006 1015 1016 1017 1018 1019 1020 1021 1022
1 0 1 2 3 4 5 6 63 64 65 66 67 68 69 70 127 128 129 130 131 132 133 134 191 192 193 194 195 196 197 198 255 256 257 258 259 260 261 262 319 320 321 322 323 324 325 326 383 384 385 386 387 388 389 390 447 448 449 450 451 452 453 454 567 568 569 570 571 572 573 574 631 632 633 634 635 636 637 638 695 696 697 698 699 700 701 702 759 760 761 762 763 764 765 766 823 824 825 826 827 828 829 830 887 888 889 890 891 892 893 894 951 952 953 954 955 956 957 958 1015 1016 1017 1018 1019 1020 1021 1022
1 1 3 5 7 9 11 13 15 17 19 21 23 25 27 29 63 65 67 69 71 73 75 77 79 81 83 85 87 89 91 93 416 418 420 422 424 426 428 430 432 434 436 438 440 442 444 446 480 482 484 486 488 490 492 494 496 498 500 502 504 506 508 510 511 513 515 517 519 521 523 525 527 529 531 533 535 537 539 541 575 577 579 581 583 585 587 589 591 593 595 597 599 601 603 605 928 930 932 934 936 938 940 942 944 946 948 950 952 954 956 958 992 994 996 998 1000 1002 1004 1006 1008 1010 1012 1014 1016 1018 1020 1022
1 0 1 2 3 4 5 6 31 32 33 34 35 36 37 38 127 128 129 130 131 132 133 134 159 160 161 162 163 164 165 166 343 344 345 346 347 348 349 350 375 376 377 378 379 380 381 382 471 472 473 474 475 476 477 478 503 504 505 506 507 508 509 510 511 512 513 514 515 516 517 518 543 544 545 546 547 548 549 550 639 640 641 642 643 644 645 646 671 672 673 674 675 676 677 678 855 856 857 858 859 860 861 862 887 888 889 890 891 892 893 894 983 984 985 986 987 988 989 990 1015 1016 1017 1018 1019 1020 1021 1022
1 0 7 8 15 16 23 24 63 64 71 72 79 80 87 88 127 128 135 136 143 144 151 152 191 192 199 200 207 208 215 216 293 294 301 302 309 310 317 318 357 358 365 366 373 374 381 382 421 422 429 430 437 438 445 446 485 486 493 494 501 502 509 510 511 512 519 520 527 528 535 536 575 576 583 584 591 592 599 600 639 640 647 648 655 656 663 664 703 704 711 712 719 720 727 728 805 806 813 814 821 822 829 830 869 870 877 878 885 886 893 894 933 934 941 942 949 950 957 958 997 998 1005 1006 1013 1014 1021 1022
1 0 3 4 7 8 11 12 31 32 35 36 39 40 43 44 209 210 213 214 217 218 221 222 241 242 245 246 249 250 253 254 255 256 259 260 263 264 267 268 287 288 291 292 295 296 299 300 465 466 469 470 473 474 477 478 497 498 501 502 505 506 509 510 511 512 515 516 519 520 523 524 543 544 547 548 551 552 555 556 721 722 725 726 729 730 733 734 753 754 757 758 761 762 765 766 767 768 771 772 775 776 779 780 799 800 803 804 807 808 811 812 977 978 981 982 985 986 989 990 1009 1010 1013 1014 1017 1018 1021 1022
1 0 3 4 15 16 19 20 31 32 35 36 47 48 51 52 201 202 205 206 217 218 221 222 233 234 237 238 249 250 253 254 255 256 259 260 271 272 275 276 287 288 291 292 303 304 307 308 457 458 461 462 473 474 477 478 489 490 493 494 505 506 509 510 511 512 515 516 527 528 531 532 543 544 547 548 559 560 563 564 713 714 717 718 729 730 733 734 745 746 749 750 761 762 765 766 767 768 771 772 783 784 787 788 799 800 803 804 815 816 819 820 969 970 973 974 985 986 989 990 1001 1002 1005 1006 1017 1018 1021 1022
1 0 3 4 31 32 35 36 63 64 67 68 95 96 99 100 153 154 157 158 185 186 189 190 217 218 221 222 249 250 253 254 255 256 259 260 287 288 291 292 319 320 323 324 351 352 355 356 409 410 413 414 441 442 445 446 473 474 477 478 505 506 509 510 511 512 515 516 543 544 547 548 575 576 579 580 607 608 611 612 665 666 669 670 697 698 701 702 729 730 733 734 761 762 765 766 767 768 771 772 799 800 803 804 831 832 835 836 863 864 867 868 921 922 925 926 953 954 957 958 985 986 989 990 1017 1018 1021 1022
1 1 7 9 31 33 39 41 84 86 92 94 116 118 124 126 127 129 135 137 159 161 167 169 212 214 220 222 244 246 252 254 255 257 263 265 287 289 295 297 340 342 348 350 372 374 380 382 383 385 391 393 415 417 423 425 468 470 476 478 500 502 508 510 511 513 519 521 543 545 551 553 596 598 604 606 628 630 636 638 639 641 647 649 671 673 679 681 724 726 732 734 756 758 764 766 767 769 775 777 799 801 807 809 852 854 860 862 884 886 892 894 895 897 903 905 927 929 935 937 980 982 988 990 1012 1014 1020 1022
1 1 15 17 31 33 47 49 76 78 92 94 108 110 124 126 127 129 143 145 159 161 175 177 204 206 220 222 236 238 252 254 255 257 271 273 287 289 303 305 332 334 348 350 364 366 380 382 383 385 399 401 415 417 431 433 460 462 476 478 492 494 508 510 511 513 527 529 543 545 559 561 588 590 604 606 620 622 636 638 639 641 655 657 671 673 687 689 716 718 732 734 748 750 764 766 767 769 783 785 799 801 815 817 844 846 860 862 876 878 892 894 895 897 911 913 927 929 943 945 972 974 988 990 1004 1006 1020 1022
1 1 28 30 31 33 60 62 63 65 92 94 95 97 124 126 127 129 156 158 159 161 188 190 191 193 220 222 223 225 252 254 255 257 284 286 287 289 316 318 319 321 348 350 351 353 380 382 383 385 412 414 415 417 444 446 447 449 476 478 479 481 508 510 511 513 540 542 543 545 572 574 575 577 604 606 607 609 636 638 639 641 668 670 671 673 700 702 703 705 732 734 735 737 764 766 767 769 796 798 799 801 828 830 831 833 860 862 863 865 892 894 895 897 924 926 927 929 956 958 959 961 988 990 991 993 1020 1022
